100
1000
396
394
393
393
393
392
392
387
387
385
384
384
382
382
381
378
377
375
371
367
367
366
366
362
359
359
356
356
351
347
346
346
346
346
345
341
341
341
340
339
339
336
334
334
332
330
326
325
325
322
320
320
320
319
319
317
317
316
316
315
315
315
314
314
312
312
310
310
306
306
306
303
300
299
298
298
295
295
295
292
292
291
290
289
284
284
282
281
279
278
276
275
275
274
273
273
271
270
270
268
